(declare-fun Constructed_Argument_t () String)
(declare-fun CreateAsClass () Bool)
(declare-fun ExpandObjSwitcher () Real)
(declare-fun Constructed_Argument_2_t () String)
(assert (= Constructed_Argument_t "number"))
(assert CreateAsClass)
(assert (= ExpandObjSwitcher 0.0))
(assert (not (= Constructed_Argument_2_t "string")))
(assert (= Constructed_Argument_2_t "number"))
(check-sat)
